; benchmark generated from python API
(set-info :status unknown)
(declare-fun cell_1_6 () Int)
(declare-fun cell_2_3 () Int)
(declare-fun cell_1_1 () Int)
(declare-fun cell_2_1 () Int)
(declare-fun cell_3_1 () Int)
(declare-fun cell_4_1 () Int)
(declare-fun cell_5_1 () Int)
(declare-fun cell_6_1 () Int)
(declare-fun cell_7_1 () Int)
(declare-fun cell_8_1 () Int)
(declare-fun cell_9_1 () Int)
(declare-fun cell_1_2 () Int)
(declare-fun cell_2_2 () Int)
(declare-fun cell_3_2 () Int)
(declare-fun cell_4_2 () Int)
(declare-fun cell_5_2 () Int)
(declare-fun cell_6_2 () Int)
(declare-fun cell_7_2 () Int)
(declare-fun cell_8_2 () Int)
(declare-fun cell_9_2 () Int)
(declare-fun cell_1_3 () Int)
(declare-fun cell_3_3 () Int)
(declare-fun cell_4_3 () Int)
(declare-fun cell_5_3 () Int)
(declare-fun cell_6_3 () Int)
(declare-fun cell_7_3 () Int)
(declare-fun cell_8_3 () Int)
(declare-fun cell_9_3 () Int)
(declare-fun cell_1_4 () Int)
(declare-fun cell_2_4 () Int)
(declare-fun cell_3_4 () Int)
(declare-fun cell_4_4 () Int)
(declare-fun cell_5_4 () Int)
(declare-fun cell_6_4 () Int)
(declare-fun cell_7_4 () Int)
(declare-fun cell_8_4 () Int)
(declare-fun cell_9_4 () Int)
(declare-fun cell_1_5 () Int)
(declare-fun cell_2_5 () Int)
(declare-fun cell_3_5 () Int)
(declare-fun cell_4_5 () Int)
(declare-fun cell_5_5 () Int)
(declare-fun cell_6_5 () Int)
(declare-fun cell_7_5 () Int)
(declare-fun cell_8_5 () Int)
(declare-fun cell_9_5 () Int)
(declare-fun cell_2_6 () Int)
(declare-fun cell_3_6 () Int)
(declare-fun cell_4_6 () Int)
(declare-fun cell_5_6 () Int)
(declare-fun cell_6_6 () Int)
(declare-fun cell_7_6 () Int)
(declare-fun cell_8_6 () Int)
(declare-fun cell_9_6 () Int)
(declare-fun cell_1_7 () Int)
(declare-fun cell_2_7 () Int)
(declare-fun cell_3_7 () Int)
(declare-fun cell_4_7 () Int)
(declare-fun cell_5_7 () Int)
(declare-fun cell_6_7 () Int)
(declare-fun cell_7_7 () Int)
(declare-fun cell_8_7 () Int)
(declare-fun cell_9_7 () Int)
(declare-fun cell_1_8 () Int)
(declare-fun cell_2_8 () Int)
(declare-fun cell_3_8 () Int)
(declare-fun cell_4_8 () Int)
(declare-fun cell_5_8 () Int)
(declare-fun cell_6_8 () Int)
(declare-fun cell_7_8 () Int)
(declare-fun cell_8_8 () Int)
(declare-fun cell_9_8 () Int)
(declare-fun cell_1_9 () Int)
(declare-fun cell_2_9 () Int)
(declare-fun cell_3_9 () Int)
(declare-fun cell_4_9 () Int)
(declare-fun cell_5_9 () Int)
(declare-fun cell_6_9 () Int)
(declare-fun cell_7_9 () Int)
(declare-fun cell_8_9 () Int)
(declare-fun cell_9_9 () Int)
(assert
 (= cell_1_6 1))
(assert
 (= cell_2_3 1))
(assert
 (let (($x366 (= cell_1_1 9)))
 (let (($x1006 (= cell_1_1 8)))
 (let (($x3848 (= cell_1_1 7)))
 (let (($x7984 (= cell_1_1 6)))
 (let (($x6162 (= cell_1_1 5)))
 (let (($x5775 (= cell_1_1 4)))
 (let (($x5217 (= cell_1_1 3)))
 (let (($x6443 (= cell_1_1 2)))
 (let (($x3937 (= cell_1_1 1)))
 (or $x3937 $x6443 $x5217 $x5775 $x6162 $x7984 $x3848 $x1006 $x366)))))))))))
(assert
 (let (($x264 (= cell_2_1 9)))
 (let (($x3347 (= cell_2_1 8)))
 (let (($x6569 (= cell_2_1 7)))
 (let (($x9198 (= cell_2_1 6)))
 (let (($x4775 (= cell_2_1 5)))
 (let (($x3839 (= cell_2_1 4)))
 (let (($x5434 (= cell_2_1 3)))
 (let (($x9641 (= cell_2_1 2)))
 (let (($x972 (= cell_2_1 1)))
 (or $x972 $x9641 $x5434 $x3839 $x4775 $x9198 $x6569 $x3347 $x264)))))))))))
(assert
 (let (($x5750 (= cell_3_1 1)))
 (or $x5750 (= cell_3_1 2) (= cell_3_1 3) (= cell_3_1 4) (= cell_3_1 5) (= cell_3_1 6) (= cell_3_1 7) (= cell_3_1 8) (= cell_3_1 9))))
(assert
 (or (= cell_4_1 1) (= cell_4_1 2) (= cell_4_1 3) (= cell_4_1 4) (= cell_4_1 5) (= cell_4_1 6) (= cell_4_1 7) (= cell_4_1 8) (= cell_4_1 9)))
(assert
 (or (= cell_5_1 1) (= cell_5_1 2) (= cell_5_1 3) (= cell_5_1 4) (= cell_5_1 5) (= cell_5_1 6) (= cell_5_1 7) (= cell_5_1 8) (= cell_5_1 9)))
(assert
 (or (= cell_6_1 1) (= cell_6_1 2) (= cell_6_1 3) (= cell_6_1 4) (= cell_6_1 5) (= cell_6_1 6) (= cell_6_1 7) (= cell_6_1 8) (= cell_6_1 9)))
(assert
 (or (= cell_7_1 1) (= cell_7_1 2) (= cell_7_1 3) (= cell_7_1 4) (= cell_7_1 5) (= cell_7_1 6) (= cell_7_1 7) (= cell_7_1 8) (= cell_7_1 9)))
(assert
 (or (= cell_8_1 1) (= cell_8_1 2) (= cell_8_1 3) (= cell_8_1 4) (= cell_8_1 5) (= cell_8_1 6) (= cell_8_1 7) (= cell_8_1 8) (= cell_8_1 9)))
(assert
 (or (= cell_9_1 1) (= cell_9_1 2) (= cell_9_1 3) (= cell_9_1 4) (= cell_9_1 5) (= cell_9_1 6) (= cell_9_1 7) (= cell_9_1 8) (= cell_9_1 9)))
(assert
 (let (($x6113 (= cell_1_2 9)))
 (let (($x9524 (= cell_1_2 8)))
 (let (($x8481 (= cell_1_2 7)))
 (let (($x2092 (= cell_1_2 6)))
 (let (($x8741 (= cell_1_2 5)))
 (let (($x4555 (= cell_1_2 4)))
 (let (($x5052 (= cell_1_2 3)))
 (let (($x588 (= cell_1_2 2)))
 (let (($x8056 (= cell_1_2 1)))
 (or $x8056 $x588 $x5052 $x4555 $x8741 $x2092 $x8481 $x9524 $x6113)))))))))))
(assert
 (let (($x9006 (= cell_2_2 9)))
 (let (($x6789 (= cell_2_2 8)))
 (let (($x2883 (= cell_2_2 7)))
 (let (($x9984 (= cell_2_2 6)))
 (let (($x9187 (= cell_2_2 5)))
 (let (($x3263 (= cell_2_2 4)))
 (let (($x9548 (= cell_2_2 3)))
 (let (($x8508 (= cell_2_2 2)))
 (let (($x5990 (= cell_2_2 1)))
 (or $x5990 $x8508 $x9548 $x3263 $x9187 $x9984 $x2883 $x6789 $x9006)))))))))))
(assert
 (let (($x10017 (= cell_3_2 1)))
 (or $x10017 (= cell_3_2 2) (= cell_3_2 3) (= cell_3_2 4) (= cell_3_2 5) (= cell_3_2 6) (= cell_3_2 7) (= cell_3_2 8) (= cell_3_2 9))))
(assert
 (or (= cell_4_2 1) (= cell_4_2 2) (= cell_4_2 3) (= cell_4_2 4) (= cell_4_2 5) (= cell_4_2 6) (= cell_4_2 7) (= cell_4_2 8) (= cell_4_2 9)))
(assert
 (or (= cell_5_2 1) (= cell_5_2 2) (= cell_5_2 3) (= cell_5_2 4) (= cell_5_2 5) (= cell_5_2 6) (= cell_5_2 7) (= cell_5_2 8) (= cell_5_2 9)))
(assert
 (or (= cell_6_2 1) (= cell_6_2 2) (= cell_6_2 3) (= cell_6_2 4) (= cell_6_2 5) (= cell_6_2 6) (= cell_6_2 7) (= cell_6_2 8) (= cell_6_2 9)))
(assert
 (or (= cell_7_2 1) (= cell_7_2 2) (= cell_7_2 3) (= cell_7_2 4) (= cell_7_2 5) (= cell_7_2 6) (= cell_7_2 7) (= cell_7_2 8) (= cell_7_2 9)))
(assert
 (or (= cell_8_2 1) (= cell_8_2 2) (= cell_8_2 3) (= cell_8_2 4) (= cell_8_2 5) (= cell_8_2 6) (= cell_8_2 7) (= cell_8_2 8) (= cell_8_2 9)))
(assert
 (or (= cell_9_2 1) (= cell_9_2 2) (= cell_9_2 3) (= cell_9_2 4) (= cell_9_2 5) (= cell_9_2 6) (= cell_9_2 7) (= cell_9_2 8) (= cell_9_2 9)))
(assert
 (let (($x9334 (= cell_1_3 9)))
 (let (($x6613 (= cell_1_3 8)))
 (let (($x9665 (= cell_1_3 7)))
 (let (($x308 (= cell_1_3 6)))
 (let (($x8682 (= cell_1_3 5)))
 (let (($x1700 (= cell_1_3 4)))
 (let (($x3034 (= cell_1_3 3)))
 (let (($x505 (= cell_1_3 2)))
 (let (($x3718 (= cell_1_3 1)))
 (or $x3718 $x505 $x3034 $x1700 $x8682 $x308 $x9665 $x6613 $x9334)))))))))))
(assert
 (let (($x3569 (= cell_2_3 1)))
 (or $x3569 (= cell_2_3 2) (= cell_2_3 3) (= cell_2_3 4) (= cell_2_3 5) (= cell_2_3 6) (= cell_2_3 7) (= cell_2_3 8) (= cell_2_3 9))))
(assert
 (let (($x5260 (= cell_3_3 1)))
 (or $x5260 (= cell_3_3 2) (= cell_3_3 3) (= cell_3_3 4) (= cell_3_3 5) (= cell_3_3 6) (= cell_3_3 7) (= cell_3_3 8) (= cell_3_3 9))))
(assert
 (let (($x8272 (= cell_4_3 1)))
 (or $x8272 (= cell_4_3 2) (= cell_4_3 3) (= cell_4_3 4) (= cell_4_3 5) (= cell_4_3 6) (= cell_4_3 7) (= cell_4_3 8) (= cell_4_3 9))))
(assert
 (let (($x6652 (= cell_5_3 1)))
 (or $x6652 (= cell_5_3 2) (= cell_5_3 3) (= cell_5_3 4) (= cell_5_3 5) (= cell_5_3 6) (= cell_5_3 7) (= cell_5_3 8) (= cell_5_3 9))))
(assert
 (let (($x844 (= cell_6_3 1)))
 (or $x844 (= cell_6_3 2) (= cell_6_3 3) (= cell_6_3 4) (= cell_6_3 5) (= cell_6_3 6) (= cell_6_3 7) (= cell_6_3 8) (= cell_6_3 9))))
(assert
 (let (($x4675 (= cell_7_3 1)))
 (or $x4675 (= cell_7_3 2) (= cell_7_3 3) (= cell_7_3 4) (= cell_7_3 5) (= cell_7_3 6) (= cell_7_3 7) (= cell_7_3 8) (= cell_7_3 9))))
(assert
 (let (($x9906 (= cell_8_3 1)))
 (or $x9906 (= cell_8_3 2) (= cell_8_3 3) (= cell_8_3 4) (= cell_8_3 5) (= cell_8_3 6) (= cell_8_3 7) (= cell_8_3 8) (= cell_8_3 9))))
(assert
 (let (($x1989 (= cell_9_3 1)))
 (or $x1989 (= cell_9_3 2) (= cell_9_3 3) (= cell_9_3 4) (= cell_9_3 5) (= cell_9_3 6) (= cell_9_3 7) (= cell_9_3 8) (= cell_9_3 9))))
(assert
 (let (($x1148 (= cell_1_4 9)))
 (let (($x916 (= cell_1_4 8)))
 (let (($x9866 (= cell_1_4 7)))
 (let (($x5385 (= cell_1_4 6)))
 (let (($x2438 (= cell_1_4 5)))
 (let (($x3055 (= cell_1_4 4)))
 (let (($x4251 (= cell_1_4 3)))
 (let (($x2033 (= cell_1_4 2)))
 (let (($x9547 (= cell_1_4 1)))
 (or $x9547 $x2033 $x4251 $x3055 $x2438 $x5385 $x9866 $x916 $x1148)))))))))))
(assert
 (let (($x7567 (= cell_2_4 1)))
 (or $x7567 (= cell_2_4 2) (= cell_2_4 3) (= cell_2_4 4) (= cell_2_4 5) (= cell_2_4 6) (= cell_2_4 7) (= cell_2_4 8) (= cell_2_4 9))))
(assert
 (let (($x9860 (= cell_3_4 1)))
 (or $x9860 (= cell_3_4 2) (= cell_3_4 3) (= cell_3_4 4) (= cell_3_4 5) (= cell_3_4 6) (= cell_3_4 7) (= cell_3_4 8) (= cell_3_4 9))))
(assert
 (or (= cell_4_4 1) (= cell_4_4 2) (= cell_4_4 3) (= cell_4_4 4) (= cell_4_4 5) (= cell_4_4 6) (= cell_4_4 7) (= cell_4_4 8) (= cell_4_4 9)))
(assert
 (or (= cell_5_4 1) (= cell_5_4 2) (= cell_5_4 3) (= cell_5_4 4) (= cell_5_4 5) (= cell_5_4 6) (= cell_5_4 7) (= cell_5_4 8) (= cell_5_4 9)))
(assert
 (or (= cell_6_4 1) (= cell_6_4 2) (= cell_6_4 3) (= cell_6_4 4) (= cell_6_4 5) (= cell_6_4 6) (= cell_6_4 7) (= cell_6_4 8) (= cell_6_4 9)))
(assert
 (or (= cell_7_4 1) (= cell_7_4 2) (= cell_7_4 3) (= cell_7_4 4) (= cell_7_4 5) (= cell_7_4 6) (= cell_7_4 7) (= cell_7_4 8) (= cell_7_4 9)))
(assert
 (or (= cell_8_4 1) (= cell_8_4 2) (= cell_8_4 3) (= cell_8_4 4) (= cell_8_4 5) (= cell_8_4 6) (= cell_8_4 7) (= cell_8_4 8) (= cell_8_4 9)))
(assert
 (or (= cell_9_4 1) (= cell_9_4 2) (= cell_9_4 3) (= cell_9_4 4) (= cell_9_4 5) (= cell_9_4 6) (= cell_9_4 7) (= cell_9_4 8) (= cell_9_4 9)))
(assert
 (let (($x9851 (= cell_1_5 9)))
 (let (($x780 (= cell_1_5 8)))
 (let (($x3415 (= cell_1_5 7)))
 (let (($x9705 (= cell_1_5 6)))
 (let (($x2803 (= cell_1_5 5)))
 (let (($x9565 (= cell_1_5 4)))
 (let (($x7446 (= cell_1_5 3)))
 (let (($x1018 (= cell_1_5 2)))
 (let (($x807 (= cell_1_5 1)))
 (or $x807 $x1018 $x7446 $x9565 $x2803 $x9705 $x3415 $x780 $x9851)))))))))))
(assert
 (let (($x10209 (= cell_2_5 1)))
 (or $x10209 (= cell_2_5 2) (= cell_2_5 3) (= cell_2_5 4) (= cell_2_5 5) (= cell_2_5 6) (= cell_2_5 7) (= cell_2_5 8) (= cell_2_5 9))))
(assert
 (let (($x2343 (= cell_3_5 1)))
 (or $x2343 (= cell_3_5 2) (= cell_3_5 3) (= cell_3_5 4) (= cell_3_5 5) (= cell_3_5 6) (= cell_3_5 7) (= cell_3_5 8) (= cell_3_5 9))))
(assert
 (let (($x942 (= cell_4_5 1)))
 (or $x942 (= cell_4_5 2) (= cell_4_5 3) (= cell_4_5 4) (= cell_4_5 5) (= cell_4_5 6) (= cell_4_5 7) (= cell_4_5 8) (= cell_4_5 9))))
(assert
 (or (= cell_5_5 1) (= cell_5_5 2) (= cell_5_5 3) (= cell_5_5 4) (= cell_5_5 5) (= cell_5_5 6) (= cell_5_5 7) (= cell_5_5 8) (= cell_5_5 9)))
(assert
 (or (= cell_6_5 1) (= cell_6_5 2) (= cell_6_5 3) (= cell_6_5 4) (= cell_6_5 5) (= cell_6_5 6) (= cell_6_5 7) (= cell_6_5 8) (= cell_6_5 9)))
(assert
 (or (= cell_7_5 1) (= cell_7_5 2) (= cell_7_5 3) (= cell_7_5 4) (= cell_7_5 5) (= cell_7_5 6) (= cell_7_5 7) (= cell_7_5 8) (= cell_7_5 9)))
(assert
 (or (= cell_8_5 1) (= cell_8_5 2) (= cell_8_5 3) (= cell_8_5 4) (= cell_8_5 5) (= cell_8_5 6) (= cell_8_5 7) (= cell_8_5 8) (= cell_8_5 9)))
(assert
 (or (= cell_9_5 1) (= cell_9_5 2) (= cell_9_5 3) (= cell_9_5 4) (= cell_9_5 5) (= cell_9_5 6) (= cell_9_5 7) (= cell_9_5 8) (= cell_9_5 9)))
(assert
 (let (($x5658 (= cell_1_6 1)))
 (or $x5658 (= cell_1_6 2) (= cell_1_6 3) (= cell_1_6 4) (= cell_1_6 5) (= cell_1_6 6) (= cell_1_6 7) (= cell_1_6 8) (= cell_1_6 9))))
(assert
 (let (($x1259 (= cell_2_6 1)))
 (or $x1259 (= cell_2_6 2) (= cell_2_6 3) (= cell_2_6 4) (= cell_2_6 5) (= cell_2_6 6) (= cell_2_6 7) (= cell_2_6 8) (= cell_2_6 9))))
(assert
 (let (($x1003 (= cell_3_6 1)))
 (or $x1003 (= cell_3_6 2) (= cell_3_6 3) (= cell_3_6 4) (= cell_3_6 5) (= cell_3_6 6) (= cell_3_6 7) (= cell_3_6 8) (= cell_3_6 9))))
(assert
 (let (($x1046 (= cell_4_6 1)))
 (or $x1046 (= cell_4_6 2) (= cell_4_6 3) (= cell_4_6 4) (= cell_4_6 5) (= cell_4_6 6) (= cell_4_6 7) (= cell_4_6 8) (= cell_4_6 9))))
(assert
 (let (($x1265 (= cell_5_6 1)))
 (or $x1265 (= cell_5_6 2) (= cell_5_6 3) (= cell_5_6 4) (= cell_5_6 5) (= cell_5_6 6) (= cell_5_6 7) (= cell_5_6 8) (= cell_5_6 9))))
(assert
 (let (($x1936 (= cell_6_6 1)))
 (or $x1936 (= cell_6_6 2) (= cell_6_6 3) (= cell_6_6 4) (= cell_6_6 5) (= cell_6_6 6) (= cell_6_6 7) (= cell_6_6 8) (= cell_6_6 9))))
(assert
 (let (($x713 (= cell_7_6 1)))
 (or $x713 (= cell_7_6 2) (= cell_7_6 3) (= cell_7_6 4) (= cell_7_6 5) (= cell_7_6 6) (= cell_7_6 7) (= cell_7_6 8) (= cell_7_6 9))))
(assert
 (let (($x7860 (= cell_8_6 1)))
 (or $x7860 (= cell_8_6 2) (= cell_8_6 3) (= cell_8_6 4) (= cell_8_6 5) (= cell_8_6 6) (= cell_8_6 7) (= cell_8_6 8) (= cell_8_6 9))))
(assert
 (let (($x6231 (= cell_9_6 1)))
 (or $x6231 (= cell_9_6 2) (= cell_9_6 3) (= cell_9_6 4) (= cell_9_6 5) (= cell_9_6 6) (= cell_9_6 7) (= cell_9_6 8) (= cell_9_6 9))))
(assert
 (let (($x1000 (= cell_1_7 1)))
 (or $x1000 (= cell_1_7 2) (= cell_1_7 3) (= cell_1_7 4) (= cell_1_7 5) (= cell_1_7 6) (= cell_1_7 7) (= cell_1_7 8) (= cell_1_7 9))))
(assert
 (let (($x9055 (= cell_2_7 1)))
 (or $x9055 (= cell_2_7 2) (= cell_2_7 3) (= cell_2_7 4) (= cell_2_7 5) (= cell_2_7 6) (= cell_2_7 7) (= cell_2_7 8) (= cell_2_7 9))))
(assert
 (let (($x9034 (= cell_3_7 1)))
 (or $x9034 (= cell_3_7 2) (= cell_3_7 3) (= cell_3_7 4) (= cell_3_7 5) (= cell_3_7 6) (= cell_3_7 7) (= cell_3_7 8) (= cell_3_7 9))))
(assert
 (or (= cell_4_7 1) (= cell_4_7 2) (= cell_4_7 3) (= cell_4_7 4) (= cell_4_7 5) (= cell_4_7 6) (= cell_4_7 7) (= cell_4_7 8) (= cell_4_7 9)))
(assert
 (or (= cell_5_7 1) (= cell_5_7 2) (= cell_5_7 3) (= cell_5_7 4) (= cell_5_7 5) (= cell_5_7 6) (= cell_5_7 7) (= cell_5_7 8) (= cell_5_7 9)))
(assert
 (let (($x9523 (= cell_6_7 1)))
 (or $x9523 (= cell_6_7 2) (= cell_6_7 3) (= cell_6_7 4) (= cell_6_7 5) (= cell_6_7 6) (= cell_6_7 7) (= cell_6_7 8) (= cell_6_7 9))))
(assert
 (or (= cell_7_7 1) (= cell_7_7 2) (= cell_7_7 3) (= cell_7_7 4) (= cell_7_7 5) (= cell_7_7 6) (= cell_7_7 7) (= cell_7_7 8) (= cell_7_7 9)))
(assert
 (or (= cell_8_7 1) (= cell_8_7 2) (= cell_8_7 3) (= cell_8_7 4) (= cell_8_7 5) (= cell_8_7 6) (= cell_8_7 7) (= cell_8_7 8) (= cell_8_7 9)))
(assert
 (or (= cell_9_7 1) (= cell_9_7 2) (= cell_9_7 3) (= cell_9_7 4) (= cell_9_7 5) (= cell_9_7 6) (= cell_9_7 7) (= cell_9_7 8) (= cell_9_7 9)))
(assert
 (let (($x4043 (= cell_1_8 1)))
 (or $x4043 (= cell_1_8 2) (= cell_1_8 3) (= cell_1_8 4) (= cell_1_8 5) (= cell_1_8 6) (= cell_1_8 7) (= cell_1_8 8) (= cell_1_8 9))))
(assert
 (let (($x8833 (= cell_2_8 1)))
 (or $x8833 (= cell_2_8 2) (= cell_2_8 3) (= cell_2_8 4) (= cell_2_8 5) (= cell_2_8 6) (= cell_2_8 7) (= cell_2_8 8) (= cell_2_8 9))))
(assert
 (or (= cell_3_8 1) (= cell_3_8 2) (= cell_3_8 3) (= cell_3_8 4) (= cell_3_8 5) (= cell_3_8 6) (= cell_3_8 7) (= cell_3_8 8) (= cell_3_8 9)))
(assert
 (or (= cell_4_8 1) (= cell_4_8 2) (= cell_4_8 3) (= cell_4_8 4) (= cell_4_8 5) (= cell_4_8 6) (= cell_4_8 7) (= cell_4_8 8) (= cell_4_8 9)))
(assert
 (or (= cell_5_8 1) (= cell_5_8 2) (= cell_5_8 3) (= cell_5_8 4) (= cell_5_8 5) (= cell_5_8 6) (= cell_5_8 7) (= cell_5_8 8) (= cell_5_8 9)))
(assert
 (or (= cell_6_8 1) (= cell_6_8 2) (= cell_6_8 3) (= cell_6_8 4) (= cell_6_8 5) (= cell_6_8 6) (= cell_6_8 7) (= cell_6_8 8) (= cell_6_8 9)))
(assert
 (let (($x5423 (= cell_7_8 1)))
 (or $x5423 (= cell_7_8 2) (= cell_7_8 3) (= cell_7_8 4) (= cell_7_8 5) (= cell_7_8 6) (= cell_7_8 7) (= cell_7_8 8) (= cell_7_8 9))))
(assert
 (or (= cell_8_8 1) (= cell_8_8 2) (= cell_8_8 3) (= cell_8_8 4) (= cell_8_8 5) (= cell_8_8 6) (= cell_8_8 7) (= cell_8_8 8) (= cell_8_8 9)))
(assert
 (or (= cell_9_8 1) (= cell_9_8 2) (= cell_9_8 3) (= cell_9_8 4) (= cell_9_8 5) (= cell_9_8 6) (= cell_9_8 7) (= cell_9_8 8) (= cell_9_8 9)))
(assert
 (let (($x10243 (= cell_1_9 1)))
 (or $x10243 (= cell_1_9 2) (= cell_1_9 3) (= cell_1_9 4) (= cell_1_9 5) (= cell_1_9 6) (= cell_1_9 7) (= cell_1_9 8) (= cell_1_9 9))))
(assert
 (let (($x4414 (= cell_2_9 1)))
 (or $x4414 (= cell_2_9 2) (= cell_2_9 3) (= cell_2_9 4) (= cell_2_9 5) (= cell_2_9 6) (= cell_2_9 7) (= cell_2_9 8) (= cell_2_9 9))))
(assert
 (or (= cell_3_9 1) (= cell_3_9 2) (= cell_3_9 3) (= cell_3_9 4) (= cell_3_9 5) (= cell_3_9 6) (= cell_3_9 7) (= cell_3_9 8) (= cell_3_9 9)))
(assert
 (or (= cell_4_9 1) (= cell_4_9 2) (= cell_4_9 3) (= cell_4_9 4) (= cell_4_9 5) (= cell_4_9 6) (= cell_4_9 7) (= cell_4_9 8) (= cell_4_9 9)))
(assert
 (or (= cell_5_9 1) (= cell_5_9 2) (= cell_5_9 3) (= cell_5_9 4) (= cell_5_9 5) (= cell_5_9 6) (= cell_5_9 7) (= cell_5_9 8) (= cell_5_9 9)))
(assert
 (or (= cell_6_9 1) (= cell_6_9 2) (= cell_6_9 3) (= cell_6_9 4) (= cell_6_9 5) (= cell_6_9 6) (= cell_6_9 7) (= cell_6_9 8) (= cell_6_9 9)))
(assert
 (or (= cell_7_9 1) (= cell_7_9 2) (= cell_7_9 3) (= cell_7_9 4) (= cell_7_9 5) (= cell_7_9 6) (= cell_7_9 7) (= cell_7_9 8) (= cell_7_9 9)))
(assert
 (let (($x6809 (= cell_8_9 1)))
 (or $x6809 (= cell_8_9 2) (= cell_8_9 3) (= cell_8_9 4) (= cell_8_9 5) (= cell_8_9 6) (= cell_8_9 7) (= cell_8_9 8) (= cell_8_9 9))))
(assert
 (or (= cell_9_9 1) (= cell_9_9 2) (= cell_9_9 3) (= cell_9_9 4) (= cell_9_9 5) (= cell_9_9 6) (= cell_9_9 7) (= cell_9_9 8) (= cell_9_9 9)))
(assert
 (and (distinct cell_1_1 cell_1_2 cell_1_3 cell_1_4 cell_1_5 cell_1_6 cell_1_7 cell_1_8 cell_1_9) true))
(assert
 (and (distinct cell_2_1 cell_2_2 cell_2_3 cell_2_4 cell_2_5 cell_2_6 cell_2_7 cell_2_8 cell_2_9) true))
(assert
 (and (distinct cell_3_1 cell_3_2 cell_3_3 cell_3_4 cell_3_5 cell_3_6 cell_3_7 cell_3_8 cell_3_9) true))
(assert
 (and (distinct cell_4_1 cell_4_2 cell_4_3 cell_4_4 cell_4_5 cell_4_6 cell_4_7 cell_4_8 cell_4_9) true))
(assert
 (and (distinct cell_5_1 cell_5_2 cell_5_3 cell_5_4 cell_5_5 cell_5_6 cell_5_7 cell_5_8 cell_5_9) true))
(assert
 (and (distinct cell_6_1 cell_6_2 cell_6_3 cell_6_4 cell_6_5 cell_6_6 cell_6_7 cell_6_8 cell_6_9) true))
(assert
 (and (distinct cell_7_1 cell_7_2 cell_7_3 cell_7_4 cell_7_5 cell_7_6 cell_7_7 cell_7_8 cell_7_9) true))
(assert
 (and (distinct cell_8_1 cell_8_2 cell_8_3 cell_8_4 cell_8_5 cell_8_6 cell_8_7 cell_8_8 cell_8_9) true))
(assert
 (and (distinct cell_9_1 cell_9_2 cell_9_3 cell_9_4 cell_9_5 cell_9_6 cell_9_7 cell_9_8 cell_9_9) true))
(assert
 (and (distinct cell_1_1 cell_2_1 cell_3_1 cell_4_1 cell_5_1 cell_6_1 cell_7_1 cell_8_1 cell_9_1) true))
(assert
 (and (distinct cell_1_2 cell_2_2 cell_3_2 cell_4_2 cell_5_2 cell_6_2 cell_7_2 cell_8_2 cell_9_2) true))
(assert
 (and (distinct cell_1_3 cell_2_3 cell_3_3 cell_4_3 cell_5_3 cell_6_3 cell_7_3 cell_8_3 cell_9_3) true))
(assert
 (and (distinct cell_1_4 cell_2_4 cell_3_4 cell_4_4 cell_5_4 cell_6_4 cell_7_4 cell_8_4 cell_9_4) true))
(assert
 (and (distinct cell_1_5 cell_2_5 cell_3_5 cell_4_5 cell_5_5 cell_6_5 cell_7_5 cell_8_5 cell_9_5) true))
(assert
 (and (distinct cell_1_6 cell_2_6 cell_3_6 cell_4_6 cell_5_6 cell_6_6 cell_7_6 cell_8_6 cell_9_6) true))
(assert
 (and (distinct cell_1_7 cell_2_7 cell_3_7 cell_4_7 cell_5_7 cell_6_7 cell_7_7 cell_8_7 cell_9_7) true))
(assert
 (and (distinct cell_1_8 cell_2_8 cell_3_8 cell_4_8 cell_5_8 cell_6_8 cell_7_8 cell_8_8 cell_9_8) true))
(assert
 (and (distinct cell_1_9 cell_2_9 cell_3_9 cell_4_9 cell_5_9 cell_6_9 cell_7_9 cell_8_9 cell_9_9) true))
(assert
 (and (distinct cell_1_1 cell_1_2 cell_1_3 cell_2_1 cell_2_2 cell_2_3 cell_3_1 cell_3_2 cell_3_3) true))
(assert
 (and (distinct cell_1_4 cell_1_5 cell_1_6 cell_2_4 cell_2_5 cell_2_6 cell_3_4 cell_3_5 cell_3_6) true))
(assert
 (and (distinct cell_1_7 cell_1_8 cell_1_9 cell_2_7 cell_2_8 cell_2_9 cell_3_7 cell_3_8 cell_3_9) true))
(assert
 (and (distinct cell_4_1 cell_4_2 cell_4_3 cell_5_1 cell_5_2 cell_5_3 cell_6_1 cell_6_2 cell_6_3) true))
(assert
 (and (distinct cell_4_4 cell_4_5 cell_4_6 cell_5_4 cell_5_5 cell_5_6 cell_6_4 cell_6_5 cell_6_6) true))
(assert
 (and (distinct cell_4_7 cell_4_8 cell_4_9 cell_5_7 cell_5_8 cell_5_9 cell_6_7 cell_6_8 cell_6_9) true))
(assert
 (and (distinct cell_7_1 cell_7_2 cell_7_3 cell_8_1 cell_8_2 cell_8_3 cell_9_1 cell_9_2 cell_9_3) true))
(assert
 (and (distinct cell_7_4 cell_7_5 cell_7_6 cell_8_4 cell_8_5 cell_8_6 cell_9_4 cell_9_5 cell_9_6) true))
(assert
 (and (distinct cell_7_7 cell_7_8 cell_7_9 cell_8_7 cell_8_8 cell_8_9 cell_9_7 cell_9_8 cell_9_9) true))
(assert
 (let (($x4890 (and (distinct cell_5_9 cell_6_8 cell_7_7 cell_8_6) true)))
 (let (($x1790 (and (distinct cell_2_9 cell_3_8 cell_4_7 cell_5_6 cell_6_5 cell_7_4 cell_8_3 cell_9_2) true)))
 (let (($x9374 (and (distinct cell_1_8 cell_2_7 cell_3_6 cell_4_5 cell_5_4 cell_6_3 cell_7_2 cell_8_1) true)))
 (let (($x3483 (and (distinct cell_1_5 cell_2_4 cell_3_3 cell_4_2) true)))
 (let (($x6116 (and (distinct cell_5_1 cell_6_2 cell_7_3 cell_8_4) true)))
 (let (($x3138 (and (distinct cell_2_1 cell_3_2 cell_4_3 cell_5_4 cell_6_5 cell_7_6 cell_8_7 cell_9_8) true)))
 (let (($x5549 (and (distinct cell_1_2 cell_2_3 cell_3_4 cell_4_5 cell_5_6 cell_6_7 cell_7_8 cell_8_9) true)))
 (let (($x7408 (and (distinct cell_1_5 cell_2_6 cell_3_7 cell_4_8) true)))
 (and $x7408 $x5549 $x3138 $x6116 $x3483 $x9374 $x1790 $x4890))))))))))
(assert
 (= cell_3_7 1))
(check-sat)
